(set-logic QF_LRA)
(declare-fun X0 () Real )
(declare-fun Y0 () Real )
(declare-fun X1 () Real )
(declare-fun Y1 () Real )
(declare-fun X2 () Real )
(declare-fun Y2 () Real )
(declare-fun X3 () Real )
(declare-fun Y3 () Real )
(declare-fun X4 () Real )
(declare-fun Y4 () Real )
(declare-fun X5 () Real )
(declare-fun Y5 () Real )
(declare-fun X6 () Real )
(declare-fun Y6 () Real )
(declare-fun X7 () Real )
(declare-fun Y7 () Real )
(declare-fun X8 () Real )
(declare-fun Y8 () Real )
(declare-fun X9 () Real )
(declare-fun Y9 () Real )
(declare-fun X10 () Real )
(declare-fun Y10 () Real )
(declare-fun X11 () Real )
(declare-fun Y11 () Real )
(declare-fun X12 () Real )
(declare-fun Y12 () Real )
(declare-fun X13 () Real )
(declare-fun Y13 () Real )
(declare-fun X14 () Real )
(declare-fun Y14 () Real )
(declare-fun X15 () Real )
(declare-fun Y15 () Real )
(declare-fun X16 () Real )
(declare-fun Y16 () Real )
(declare-fun X17 () Real )
(declare-fun Y17 () Real )
(declare-fun Z () Real )
(assert ( and  
( or ( <= ( + X0 90 ) X1 )  ( <= ( + X1 89 ) X0 )  ( <= ( + Y0 42 ) Y1 )  ( <= ( + Y1 26 ) Y0 )  )
( or ( <= ( + X0 90 ) X2 )  ( <= ( + X2 42 ) X0 )  ( <= ( + Y0 42 ) Y2 )  ( <= ( + Y2 37 ) Y0 )  )
( or ( <= ( + X0 90 ) X3 )  ( <= ( + X3 60 ) X0 )  ( <= ( + Y0 42 ) Y3 )  ( <= ( + Y3 20 ) Y0 )  )
( or ( <= ( + X0 90 ) X4 )  ( <= ( + X4 52 ) X0 )  ( <= ( + Y0 42 ) Y4 )  ( <= ( + Y4 54 ) Y0 )  )
( or ( <= ( + X0 90 ) X5 )  ( <= ( + X5 72 ) X0 )  ( <= ( + Y0 42 ) Y5 )  ( <= ( + Y5 67 ) Y0 )  )
( or ( <= ( + X0 90 ) X6 )  ( <= ( + X6 80 ) X0 )  ( <= ( + Y0 42 ) Y6 )  ( <= ( + Y6 78 ) Y0 )  )
( or ( <= ( + X0 90 ) X7 )  ( <= ( + X7 92 ) X0 )  ( <= ( + Y0 42 ) Y7 )  ( <= ( + Y7 55 ) Y0 )  )
( or ( <= ( + X0 90 ) X8 )  ( <= ( + X8 5 ) X0 )  ( <= ( + Y0 42 ) Y8 )  ( <= ( + Y8 44 ) Y0 )  )
( or ( <= ( + X0 90 ) X9 )  ( <= ( + X9 39 ) X0 )  ( <= ( + Y0 42 ) Y9 )  ( <= ( + Y9 71 ) Y0 )  )
( or ( <= ( + X0 90 ) X10 )  ( <= ( + X10 64 ) X0 )  ( <= ( + Y0 42 ) Y10 )  ( <= ( + Y10 36 ) Y0 )  )
( or ( <= ( + X0 90 ) X11 )  ( <= ( + X11 22 ) X0 )  ( <= ( + Y0 42 ) Y11 )  ( <= ( + Y11 57 ) Y0 )  )
( or ( <= ( + X0 90 ) X12 )  ( <= ( + X12 89 ) X0 )  ( <= ( + Y0 42 ) Y12 )  ( <= ( + Y12 32 ) Y0 )  )
( or ( <= ( + X0 90 ) X13 )  ( <= ( + X13 43 ) X0 )  ( <= ( + Y0 42 ) Y13 )  ( <= ( + Y13 77 ) Y0 )  )
( or ( <= ( + X0 90 ) X14 )  ( <= ( + X14 85 ) X0 )  ( <= ( + Y0 42 ) Y14 )  ( <= ( + Y14 45 ) Y0 )  )
( or ( <= ( + X0 90 ) X15 )  ( <= ( + X15 28 ) X0 )  ( <= ( + Y0 42 ) Y15 )  ( <= ( + Y15 25 ) Y0 )  )
( or ( <= ( + X0 90 ) X16 )  ( <= ( + X16 94 ) X0 )  ( <= ( + Y0 42 ) Y16 )  ( <= ( + Y16 36 ) Y0 )  )
( or ( <= ( + X0 90 ) X17 )  ( <= ( + X17 27 ) X0 )  ( <= ( + Y0 42 ) Y17 )  ( <= ( + Y17 49 ) Y0 )  )
( or ( <= ( + X1 89 ) X2 )  ( <= ( + X2 42 ) X1 )  ( <= ( + Y1 26 ) Y2 )  ( <= ( + Y2 37 ) Y1 )  )
( or ( <= ( + X1 89 ) X3 )  ( <= ( + X3 60 ) X1 )  ( <= ( + Y1 26 ) Y3 )  ( <= ( + Y3 20 ) Y1 )  )
( or ( <= ( + X1 89 ) X4 )  ( <= ( + X4 52 ) X1 )  ( <= ( + Y1 26 ) Y4 )  ( <= ( + Y4 54 ) Y1 )  )
( or ( <= ( + X1 89 ) X5 )  ( <= ( + X5 72 ) X1 )  ( <= ( + Y1 26 ) Y5 )  ( <= ( + Y5 67 ) Y1 )  )
( or ( <= ( + X1 89 ) X6 )  ( <= ( + X6 80 ) X1 )  ( <= ( + Y1 26 ) Y6 )  ( <= ( + Y6 78 ) Y1 )  )
( or ( <= ( + X1 89 ) X7 )  ( <= ( + X7 92 ) X1 )  ( <= ( + Y1 26 ) Y7 )  ( <= ( + Y7 55 ) Y1 )  )
( or ( <= ( + X1 89 ) X8 )  ( <= ( + X8 5 ) X1 )  ( <= ( + Y1 26 ) Y8 )  ( <= ( + Y8 44 ) Y1 )  )
( or ( <= ( + X1 89 ) X9 )  ( <= ( + X9 39 ) X1 )  ( <= ( + Y1 26 ) Y9 )  ( <= ( + Y9 71 ) Y1 )  )
( or ( <= ( + X1 89 ) X10 )  ( <= ( + X10 64 ) X1 )  ( <= ( + Y1 26 ) Y10 )  ( <= ( + Y10 36 ) Y1 )  )
( or ( <= ( + X1 89 ) X11 )  ( <= ( + X11 22 ) X1 )  ( <= ( + Y1 26 ) Y11 )  ( <= ( + Y11 57 ) Y1 )  )
( or ( <= ( + X1 89 ) X12 )  ( <= ( + X12 89 ) X1 )  ( <= ( + Y1 26 ) Y12 )  ( <= ( + Y12 32 ) Y1 )  )
( or ( <= ( + X1 89 ) X13 )  ( <= ( + X13 43 ) X1 )  ( <= ( + Y1 26 ) Y13 )  ( <= ( + Y13 77 ) Y1 )  )
( or ( <= ( + X1 89 ) X14 )  ( <= ( + X14 85 ) X1 )  ( <= ( + Y1 26 ) Y14 )  ( <= ( + Y14 45 ) Y1 )  )
( or ( <= ( + X1 89 ) X15 )  ( <= ( + X15 28 ) X1 )  ( <= ( + Y1 26 ) Y15 )  ( <= ( + Y15 25 ) Y1 )  )
( or ( <= ( + X1 89 ) X16 )  ( <= ( + X16 94 ) X1 )  ( <= ( + Y1 26 ) Y16 )  ( <= ( + Y16 36 ) Y1 )  )
( or ( <= ( + X1 89 ) X17 )  ( <= ( + X17 27 ) X1 )  ( <= ( + Y1 26 ) Y17 )  ( <= ( + Y17 49 ) Y1 )  )
( or ( <= ( + X2 42 ) X3 )  ( <= ( + X3 60 ) X2 )  ( <= ( + Y2 37 ) Y3 )  ( <= ( + Y3 20 ) Y2 )  )
( or ( <= ( + X2 42 ) X4 )  ( <= ( + X4 52 ) X2 )  ( <= ( + Y2 37 ) Y4 )  ( <= ( + Y4 54 ) Y2 )  )
( or ( <= ( + X2 42 ) X5 )  ( <= ( + X5 72 ) X2 )  ( <= ( + Y2 37 ) Y5 )  ( <= ( + Y5 67 ) Y2 )  )
( or ( <= ( + X2 42 ) X6 )  ( <= ( + X6 80 ) X2 )  ( <= ( + Y2 37 ) Y6 )  ( <= ( + Y6 78 ) Y2 )  )
( or ( <= ( + X2 42 ) X7 )  ( <= ( + X7 92 ) X2 )  ( <= ( + Y2 37 ) Y7 )  ( <= ( + Y7 55 ) Y2 )  )
( or ( <= ( + X2 42 ) X8 )  ( <= ( + X8 5 ) X2 )  ( <= ( + Y2 37 ) Y8 )  ( <= ( + Y8 44 ) Y2 )  )
( or ( <= ( + X2 42 ) X9 )  ( <= ( + X9 39 ) X2 )  ( <= ( + Y2 37 ) Y9 )  ( <= ( + Y9 71 ) Y2 )  )
( or ( <= ( + X2 42 ) X10 )  ( <= ( + X10 64 ) X2 )  ( <= ( + Y2 37 ) Y10 )  ( <= ( + Y10 36 ) Y2 )  )
( or ( <= ( + X2 42 ) X11 )  ( <= ( + X11 22 ) X2 )  ( <= ( + Y2 37 ) Y11 )  ( <= ( + Y11 57 ) Y2 )  )
( or ( <= ( + X2 42 ) X12 )  ( <= ( + X12 89 ) X2 )  ( <= ( + Y2 37 ) Y12 )  ( <= ( + Y12 32 ) Y2 )  )
( or ( <= ( + X2 42 ) X13 )  ( <= ( + X13 43 ) X2 )  ( <= ( + Y2 37 ) Y13 )  ( <= ( + Y13 77 ) Y2 )  )
( or ( <= ( + X2 42 ) X14 )  ( <= ( + X14 85 ) X2 )  ( <= ( + Y2 37 ) Y14 )  ( <= ( + Y14 45 ) Y2 )  )
( or ( <= ( + X2 42 ) X15 )  ( <= ( + X15 28 ) X2 )  ( <= ( + Y2 37 ) Y15 )  ( <= ( + Y15 25 ) Y2 )  )
( or ( <= ( + X2 42 ) X16 )  ( <= ( + X16 94 ) X2 )  ( <= ( + Y2 37 ) Y16 )  ( <= ( + Y16 36 ) Y2 )  )
( or ( <= ( + X2 42 ) X17 )  ( <= ( + X17 27 ) X2 )  ( <= ( + Y2 37 ) Y17 )  ( <= ( + Y17 49 ) Y2 )  )
( or ( <= ( + X3 60 ) X4 )  ( <= ( + X4 52 ) X3 )  ( <= ( + Y3 20 ) Y4 )  ( <= ( + Y4 54 ) Y3 )  )
( or ( <= ( + X3 60 ) X5 )  ( <= ( + X5 72 ) X3 )  ( <= ( + Y3 20 ) Y5 )  ( <= ( + Y5 67 ) Y3 )  )
( or ( <= ( + X3 60 ) X6 )  ( <= ( + X6 80 ) X3 )  ( <= ( + Y3 20 ) Y6 )  ( <= ( + Y6 78 ) Y3 )  )
( or ( <= ( + X3 60 ) X7 )  ( <= ( + X7 92 ) X3 )  ( <= ( + Y3 20 ) Y7 )  ( <= ( + Y7 55 ) Y3 )  )
( or ( <= ( + X3 60 ) X8 )  ( <= ( + X8 5 ) X3 )  ( <= ( + Y3 20 ) Y8 )  ( <= ( + Y8 44 ) Y3 )  )
( or ( <= ( + X3 60 ) X9 )  ( <= ( + X9 39 ) X3 )  ( <= ( + Y3 20 ) Y9 )  ( <= ( + Y9 71 ) Y3 )  )
( or ( <= ( + X3 60 ) X10 )  ( <= ( + X10 64 ) X3 )  ( <= ( + Y3 20 ) Y10 )  ( <= ( + Y10 36 ) Y3 )  )
( or ( <= ( + X3 60 ) X11 )  ( <= ( + X11 22 ) X3 )  ( <= ( + Y3 20 ) Y11 )  ( <= ( + Y11 57 ) Y3 )  )
( or ( <= ( + X3 60 ) X12 )  ( <= ( + X12 89 ) X3 )  ( <= ( + Y3 20 ) Y12 )  ( <= ( + Y12 32 ) Y3 )  )
( or ( <= ( + X3 60 ) X13 )  ( <= ( + X13 43 ) X3 )  ( <= ( + Y3 20 ) Y13 )  ( <= ( + Y13 77 ) Y3 )  )
( or ( <= ( + X3 60 ) X14 )  ( <= ( + X14 85 ) X3 )  ( <= ( + Y3 20 ) Y14 )  ( <= ( + Y14 45 ) Y3 )  )
( or ( <= ( + X3 60 ) X15 )  ( <= ( + X15 28 ) X3 )  ( <= ( + Y3 20 ) Y15 )  ( <= ( + Y15 25 ) Y3 )  )
( or ( <= ( + X3 60 ) X16 )  ( <= ( + X16 94 ) X3 )  ( <= ( + Y3 20 ) Y16 )  ( <= ( + Y16 36 ) Y3 )  )
( or ( <= ( + X3 60 ) X17 )  ( <= ( + X17 27 ) X3 )  ( <= ( + Y3 20 ) Y17 )  ( <= ( + Y17 49 ) Y3 )  )
( or ( <= ( + X4 52 ) X5 )  ( <= ( + X5 72 ) X4 )  ( <= ( + Y4 54 ) Y5 )  ( <= ( + Y5 67 ) Y4 )  )
( or ( <= ( + X4 52 ) X6 )  ( <= ( + X6 80 ) X4 )  ( <= ( + Y4 54 ) Y6 )  ( <= ( + Y6 78 ) Y4 )  )
( or ( <= ( + X4 52 ) X7 )  ( <= ( + X7 92 ) X4 )  ( <= ( + Y4 54 ) Y7 )  ( <= ( + Y7 55 ) Y4 )  )
( or ( <= ( + X4 52 ) X8 )  ( <= ( + X8 5 ) X4 )  ( <= ( + Y4 54 ) Y8 )  ( <= ( + Y8 44 ) Y4 )  )
( or ( <= ( + X4 52 ) X9 )  ( <= ( + X9 39 ) X4 )  ( <= ( + Y4 54 ) Y9 )  ( <= ( + Y9 71 ) Y4 )  )
( or ( <= ( + X4 52 ) X10 )  ( <= ( + X10 64 ) X4 )  ( <= ( + Y4 54 ) Y10 )  ( <= ( + Y10 36 ) Y4 )  )
( or ( <= ( + X4 52 ) X11 )  ( <= ( + X11 22 ) X4 )  ( <= ( + Y4 54 ) Y11 )  ( <= ( + Y11 57 ) Y4 )  )
( or ( <= ( + X4 52 ) X12 )  ( <= ( + X12 89 ) X4 )  ( <= ( + Y4 54 ) Y12 )  ( <= ( + Y12 32 ) Y4 )  )
( or ( <= ( + X4 52 ) X13 )  ( <= ( + X13 43 ) X4 )  ( <= ( + Y4 54 ) Y13 )  ( <= ( + Y13 77 ) Y4 )  )
( or ( <= ( + X4 52 ) X14 )  ( <= ( + X14 85 ) X4 )  ( <= ( + Y4 54 ) Y14 )  ( <= ( + Y14 45 ) Y4 )  )
( or ( <= ( + X4 52 ) X15 )  ( <= ( + X15 28 ) X4 )  ( <= ( + Y4 54 ) Y15 )  ( <= ( + Y15 25 ) Y4 )  )
( or ( <= ( + X4 52 ) X16 )  ( <= ( + X16 94 ) X4 )  ( <= ( + Y4 54 ) Y16 )  ( <= ( + Y16 36 ) Y4 )  )
( or ( <= ( + X4 52 ) X17 )  ( <= ( + X17 27 ) X4 )  ( <= ( + Y4 54 ) Y17 )  ( <= ( + Y17 49 ) Y4 )  )
( or ( <= ( + X5 72 ) X6 )  ( <= ( + X6 80 ) X5 )  ( <= ( + Y5 67 ) Y6 )  ( <= ( + Y6 78 ) Y5 )  )
( or ( <= ( + X5 72 ) X7 )  ( <= ( + X7 92 ) X5 )  ( <= ( + Y5 67 ) Y7 )  ( <= ( + Y7 55 ) Y5 )  )
( or ( <= ( + X5 72 ) X8 )  ( <= ( + X8 5 ) X5 )  ( <= ( + Y5 67 ) Y8 )  ( <= ( + Y8 44 ) Y5 )  )
( or ( <= ( + X5 72 ) X9 )  ( <= ( + X9 39 ) X5 )  ( <= ( + Y5 67 ) Y9 )  ( <= ( + Y9 71 ) Y5 )  )
( or ( <= ( + X5 72 ) X10 )  ( <= ( + X10 64 ) X5 )  ( <= ( + Y5 67 ) Y10 )  ( <= ( + Y10 36 ) Y5 )  )
( or ( <= ( + X5 72 ) X11 )  ( <= ( + X11 22 ) X5 )  ( <= ( + Y5 67 ) Y11 )  ( <= ( + Y11 57 ) Y5 )  )
( or ( <= ( + X5 72 ) X12 )  ( <= ( + X12 89 ) X5 )  ( <= ( + Y5 67 ) Y12 )  ( <= ( + Y12 32 ) Y5 )  )
( or ( <= ( + X5 72 ) X13 )  ( <= ( + X13 43 ) X5 )  ( <= ( + Y5 67 ) Y13 )  ( <= ( + Y13 77 ) Y5 )  )
( or ( <= ( + X5 72 ) X14 )  ( <= ( + X14 85 ) X5 )  ( <= ( + Y5 67 ) Y14 )  ( <= ( + Y14 45 ) Y5 )  )
( or ( <= ( + X5 72 ) X15 )  ( <= ( + X15 28 ) X5 )  ( <= ( + Y5 67 ) Y15 )  ( <= ( + Y15 25 ) Y5 )  )
( or ( <= ( + X5 72 ) X16 )  ( <= ( + X16 94 ) X5 )  ( <= ( + Y5 67 ) Y16 )  ( <= ( + Y16 36 ) Y5 )  )
( or ( <= ( + X5 72 ) X17 )  ( <= ( + X17 27 ) X5 )  ( <= ( + Y5 67 ) Y17 )  ( <= ( + Y17 49 ) Y5 )  )
( or ( <= ( + X6 80 ) X7 )  ( <= ( + X7 92 ) X6 )  ( <= ( + Y6 78 ) Y7 )  ( <= ( + Y7 55 ) Y6 )  )
( or ( <= ( + X6 80 ) X8 )  ( <= ( + X8 5 ) X6 )  ( <= ( + Y6 78 ) Y8 )  ( <= ( + Y8 44 ) Y6 )  )
( or ( <= ( + X6 80 ) X9 )  ( <= ( + X9 39 ) X6 )  ( <= ( + Y6 78 ) Y9 )  ( <= ( + Y9 71 ) Y6 )  )
( or ( <= ( + X6 80 ) X10 )  ( <= ( + X10 64 ) X6 )  ( <= ( + Y6 78 ) Y10 )  ( <= ( + Y10 36 ) Y6 )  )
( or ( <= ( + X6 80 ) X11 )  ( <= ( + X11 22 ) X6 )  ( <= ( + Y6 78 ) Y11 )  ( <= ( + Y11 57 ) Y6 )  )
( or ( <= ( + X6 80 ) X12 )  ( <= ( + X12 89 ) X6 )  ( <= ( + Y6 78 ) Y12 )  ( <= ( + Y12 32 ) Y6 )  )
( or ( <= ( + X6 80 ) X13 )  ( <= ( + X13 43 ) X6 )  ( <= ( + Y6 78 ) Y13 )  ( <= ( + Y13 77 ) Y6 )  )
( or ( <= ( + X6 80 ) X14 )  ( <= ( + X14 85 ) X6 )  ( <= ( + Y6 78 ) Y14 )  ( <= ( + Y14 45 ) Y6 )  )
( or ( <= ( + X6 80 ) X15 )  ( <= ( + X15 28 ) X6 )  ( <= ( + Y6 78 ) Y15 )  ( <= ( + Y15 25 ) Y6 )  )
( or ( <= ( + X6 80 ) X16 )  ( <= ( + X16 94 ) X6 )  ( <= ( + Y6 78 ) Y16 )  ( <= ( + Y16 36 ) Y6 )  )
( or ( <= ( + X6 80 ) X17 )  ( <= ( + X17 27 ) X6 )  ( <= ( + Y6 78 ) Y17 )  ( <= ( + Y17 49 ) Y6 )  )
( or ( <= ( + X7 92 ) X8 )  ( <= ( + X8 5 ) X7 )  ( <= ( + Y7 55 ) Y8 )  ( <= ( + Y8 44 ) Y7 )  )
( or ( <= ( + X7 92 ) X9 )  ( <= ( + X9 39 ) X7 )  ( <= ( + Y7 55 ) Y9 )  ( <= ( + Y9 71 ) Y7 )  )
( or ( <= ( + X7 92 ) X10 )  ( <= ( + X10 64 ) X7 )  ( <= ( + Y7 55 ) Y10 )  ( <= ( + Y10 36 ) Y7 )  )
( or ( <= ( + X7 92 ) X11 )  ( <= ( + X11 22 ) X7 )  ( <= ( + Y7 55 ) Y11 )  ( <= ( + Y11 57 ) Y7 )  )
( or ( <= ( + X7 92 ) X12 )  ( <= ( + X12 89 ) X7 )  ( <= ( + Y7 55 ) Y12 )  ( <= ( + Y12 32 ) Y7 )  )
( or ( <= ( + X7 92 ) X13 )  ( <= ( + X13 43 ) X7 )  ( <= ( + Y7 55 ) Y13 )  ( <= ( + Y13 77 ) Y7 )  )
( or ( <= ( + X7 92 ) X14 )  ( <= ( + X14 85 ) X7 )  ( <= ( + Y7 55 ) Y14 )  ( <= ( + Y14 45 ) Y7 )  )
( or ( <= ( + X7 92 ) X15 )  ( <= ( + X15 28 ) X7 )  ( <= ( + Y7 55 ) Y15 )  ( <= ( + Y15 25 ) Y7 )  )
( or ( <= ( + X7 92 ) X16 )  ( <= ( + X16 94 ) X7 )  ( <= ( + Y7 55 ) Y16 )  ( <= ( + Y16 36 ) Y7 )  )
( or ( <= ( + X7 92 ) X17 )  ( <= ( + X17 27 ) X7 )  ( <= ( + Y7 55 ) Y17 )  ( <= ( + Y17 49 ) Y7 )  )
( or ( <= ( + X8 5 ) X9 )  ( <= ( + X9 39 ) X8 )  ( <= ( + Y8 44 ) Y9 )  ( <= ( + Y9 71 ) Y8 )  )
( or ( <= ( + X8 5 ) X10 )  ( <= ( + X10 64 ) X8 )  ( <= ( + Y8 44 ) Y10 )  ( <= ( + Y10 36 ) Y8 )  )
( or ( <= ( + X8 5 ) X11 )  ( <= ( + X11 22 ) X8 )  ( <= ( + Y8 44 ) Y11 )  ( <= ( + Y11 57 ) Y8 )  )
( or ( <= ( + X8 5 ) X12 )  ( <= ( + X12 89 ) X8 )  ( <= ( + Y8 44 ) Y12 )  ( <= ( + Y12 32 ) Y8 )  )
( or ( <= ( + X8 5 ) X13 )  ( <= ( + X13 43 ) X8 )  ( <= ( + Y8 44 ) Y13 )  ( <= ( + Y13 77 ) Y8 )  )
( or ( <= ( + X8 5 ) X14 )  ( <= ( + X14 85 ) X8 )  ( <= ( + Y8 44 ) Y14 )  ( <= ( + Y14 45 ) Y8 )  )
( or ( <= ( + X8 5 ) X15 )  ( <= ( + X15 28 ) X8 )  ( <= ( + Y8 44 ) Y15 )  ( <= ( + Y15 25 ) Y8 )  )
( or ( <= ( + X8 5 ) X16 )  ( <= ( + X16 94 ) X8 )  ( <= ( + Y8 44 ) Y16 )  ( <= ( + Y16 36 ) Y8 )  )
( or ( <= ( + X8 5 ) X17 )  ( <= ( + X17 27 ) X8 )  ( <= ( + Y8 44 ) Y17 )  ( <= ( + Y17 49 ) Y8 )  )
( or ( <= ( + X9 39 ) X10 )  ( <= ( + X10 64 ) X9 )  ( <= ( + Y9 71 ) Y10 )  ( <= ( + Y10 36 ) Y9 )  )
( or ( <= ( + X9 39 ) X11 )  ( <= ( + X11 22 ) X9 )  ( <= ( + Y9 71 ) Y11 )  ( <= ( + Y11 57 ) Y9 )  )
( or ( <= ( + X9 39 ) X12 )  ( <= ( + X12 89 ) X9 )  ( <= ( + Y9 71 ) Y12 )  ( <= ( + Y12 32 ) Y9 )  )
( or ( <= ( + X9 39 ) X13 )  ( <= ( + X13 43 ) X9 )  ( <= ( + Y9 71 ) Y13 )  ( <= ( + Y13 77 ) Y9 )  )
( or ( <= ( + X9 39 ) X14 )  ( <= ( + X14 85 ) X9 )  ( <= ( + Y9 71 ) Y14 )  ( <= ( + Y14 45 ) Y9 )  )
( or ( <= ( + X9 39 ) X15 )  ( <= ( + X15 28 ) X9 )  ( <= ( + Y9 71 ) Y15 )  ( <= ( + Y15 25 ) Y9 )  )
( or ( <= ( + X9 39 ) X16 )  ( <= ( + X16 94 ) X9 )  ( <= ( + Y9 71 ) Y16 )  ( <= ( + Y16 36 ) Y9 )  )
( or ( <= ( + X9 39 ) X17 )  ( <= ( + X17 27 ) X9 )  ( <= ( + Y9 71 ) Y17 )  ( <= ( + Y17 49 ) Y9 )  )
( or ( <= ( + X10 64 ) X11 )  ( <= ( + X11 22 ) X10 )  ( <= ( + Y10 36 ) Y11 )  ( <= ( + Y11 57 ) Y10 )  )
( or ( <= ( + X10 64 ) X12 )  ( <= ( + X12 89 ) X10 )  ( <= ( + Y10 36 ) Y12 )  ( <= ( + Y12 32 ) Y10 )  )
( or ( <= ( + X10 64 ) X13 )  ( <= ( + X13 43 ) X10 )  ( <= ( + Y10 36 ) Y13 )  ( <= ( + Y13 77 ) Y10 )  )
( or ( <= ( + X10 64 ) X14 )  ( <= ( + X14 85 ) X10 )  ( <= ( + Y10 36 ) Y14 )  ( <= ( + Y14 45 ) Y10 )  )
( or ( <= ( + X10 64 ) X15 )  ( <= ( + X15 28 ) X10 )  ( <= ( + Y10 36 ) Y15 )  ( <= ( + Y15 25 ) Y10 )  )
( or ( <= ( + X10 64 ) X16 )  ( <= ( + X16 94 ) X10 )  ( <= ( + Y10 36 ) Y16 )  ( <= ( + Y16 36 ) Y10 )  )
( or ( <= ( + X10 64 ) X17 )  ( <= ( + X17 27 ) X10 )  ( <= ( + Y10 36 ) Y17 )  ( <= ( + Y17 49 ) Y10 )  )
( or ( <= ( + X11 22 ) X12 )  ( <= ( + X12 89 ) X11 )  ( <= ( + Y11 57 ) Y12 )  ( <= ( + Y12 32 ) Y11 )  )
( or ( <= ( + X11 22 ) X13 )  ( <= ( + X13 43 ) X11 )  ( <= ( + Y11 57 ) Y13 )  ( <= ( + Y13 77 ) Y11 )  )
( or ( <= ( + X11 22 ) X14 )  ( <= ( + X14 85 ) X11 )  ( <= ( + Y11 57 ) Y14 )  ( <= ( + Y14 45 ) Y11 )  )
( or ( <= ( + X11 22 ) X15 )  ( <= ( + X15 28 ) X11 )  ( <= ( + Y11 57 ) Y15 )  ( <= ( + Y15 25 ) Y11 )  )
( or ( <= ( + X11 22 ) X16 )  ( <= ( + X16 94 ) X11 )  ( <= ( + Y11 57 ) Y16 )  ( <= ( + Y16 36 ) Y11 )  )
( or ( <= ( + X11 22 ) X17 )  ( <= ( + X17 27 ) X11 )  ( <= ( + Y11 57 ) Y17 )  ( <= ( + Y17 49 ) Y11 )  )
( or ( <= ( + X12 89 ) X13 )  ( <= ( + X13 43 ) X12 )  ( <= ( + Y12 32 ) Y13 )  ( <= ( + Y13 77 ) Y12 )  )
( or ( <= ( + X12 89 ) X14 )  ( <= ( + X14 85 ) X12 )  ( <= ( + Y12 32 ) Y14 )  ( <= ( + Y14 45 ) Y12 )  )
( or ( <= ( + X12 89 ) X15 )  ( <= ( + X15 28 ) X12 )  ( <= ( + Y12 32 ) Y15 )  ( <= ( + Y15 25 ) Y12 )  )
( or ( <= ( + X12 89 ) X16 )  ( <= ( + X16 94 ) X12 )  ( <= ( + Y12 32 ) Y16 )  ( <= ( + Y16 36 ) Y12 )  )
( or ( <= ( + X12 89 ) X17 )  ( <= ( + X17 27 ) X12 )  ( <= ( + Y12 32 ) Y17 )  ( <= ( + Y17 49 ) Y12 )  )
( or ( <= ( + X13 43 ) X14 )  ( <= ( + X14 85 ) X13 )  ( <= ( + Y13 77 ) Y14 )  ( <= ( + Y14 45 ) Y13 )  )
( or ( <= ( + X13 43 ) X15 )  ( <= ( + X15 28 ) X13 )  ( <= ( + Y13 77 ) Y15 )  ( <= ( + Y15 25 ) Y13 )  )
( or ( <= ( + X13 43 ) X16 )  ( <= ( + X16 94 ) X13 )  ( <= ( + Y13 77 ) Y16 )  ( <= ( + Y16 36 ) Y13 )  )
( or ( <= ( + X13 43 ) X17 )  ( <= ( + X17 27 ) X13 )  ( <= ( + Y13 77 ) Y17 )  ( <= ( + Y17 49 ) Y13 )  )
( or ( <= ( + X14 85 ) X15 )  ( <= ( + X15 28 ) X14 )  ( <= ( + Y14 45 ) Y15 )  ( <= ( + Y15 25 ) Y14 )  )
( or ( <= ( + X14 85 ) X16 )  ( <= ( + X16 94 ) X14 )  ( <= ( + Y14 45 ) Y16 )  ( <= ( + Y16 36 ) Y14 )  )
( or ( <= ( + X14 85 ) X17 )  ( <= ( + X17 27 ) X14 )  ( <= ( + Y14 45 ) Y17 )  ( <= ( + Y17 49 ) Y14 )  )
( or ( <= ( + X15 28 ) X16 )  ( <= ( + X16 94 ) X15 )  ( <= ( + Y15 25 ) Y16 )  ( <= ( + Y16 36 ) Y15 )  )
( or ( <= ( + X15 28 ) X17 )  ( <= ( + X17 27 ) X15 )  ( <= ( + Y15 25 ) Y17 )  ( <= ( + Y17 49 ) Y15 )  )
( or ( <= ( + X16 94 ) X17 )  ( <= ( + X17 27 ) X16 )  ( <= ( + Y16 36 ) Y17 )  ( <= ( + Y17 49 ) Y16 )  )
( >= X0 0)
( <= ( + X0 90) Z)
( >= Y0 0)
( <= ( + Y0 42 ) 100)
( >= X1 0)
( <= ( + X1 89) Z)
( >= Y1 0)
( <= ( + Y1 26 ) 100)
( >= X2 0)
( <= ( + X2 42) Z)
( >= Y2 0)
( <= ( + Y2 37 ) 100)
( >= X3 0)
( <= ( + X3 60) Z)
( >= Y3 0)
( <= ( + Y3 20 ) 100)
( >= X4 0)
( <= ( + X4 52) Z)
( >= Y4 0)
( <= ( + Y4 54 ) 100)
( >= X5 0)
( <= ( + X5 72) Z)
( >= Y5 0)
( <= ( + Y5 67 ) 100)
( >= X6 0)
( <= ( + X6 80) Z)
( >= Y6 0)
( <= ( + Y6 78 ) 100)
( >= X7 0)
( <= ( + X7 92) Z)
( >= Y7 0)
( <= ( + Y7 55 ) 100)
( >= X8 0)
( <= ( + X8 5) Z)
( >= Y8 0)
( <= ( + Y8 44 ) 100)
( >= X9 0)
( <= ( + X9 39) Z)
( >= Y9 0)
( <= ( + Y9 71 ) 100)
( >= X10 0)
( <= ( + X10 64) Z)
( >= Y10 0)
( <= ( + Y10 36 ) 100)
( >= X11 0)
( <= ( + X11 22) Z)
( >= Y11 0)
( <= ( + Y11 57 ) 100)
( >= X12 0)
( <= ( + X12 89) Z)
( >= Y12 0)
( <= ( + Y12 32 ) 100)
( >= X13 0)
( <= ( + X13 43) Z)
( >= Y13 0)
( <= ( + Y13 77 ) 100)
( >= X14 0)
( <= ( + X14 85) Z)
( >= Y14 0)
( <= ( + Y14 45 ) 100)
( >= X15 0)
( <= ( + X15 28) Z)
( >= Y15 0)
( <= ( + Y15 25 ) 100)
( >= X16 0)
( <= ( + X16 94) Z)
( >= Y16 0)
( <= ( + Y16 36 ) 100)
( >= X17 0)
( <= ( + X17 27) Z)
( >= Y17 0)
( <= ( + Y17 49 ) 100)
) )
(minimize Z)
(check-sat)
